bug_dir/eq_top.smt2
; SMT-LIBv2 description generated by Yosys 0.51 (git sha1 c4b5190229616f7ebf8197f43990b4429de3e420, g++ 14.2.1 -fPIC -O3)
; yosys-smt2-module eq_top
(declare-sort |eq_top_s| 0)
(declare-fun |eq_top_is| (|eq_top_s|) Bool)
(declare-fun |eq_top#0| (|eq_top_s|) (_ BitVec 1)) ; \in__04_
(declare-fun |eq_top#1| (|eq_top_s|) (_ BitVec 1)) ; \in__12_
(define-fun |eq_top#2| ((state |eq_top_s|)) (_ BitVec 1) (bvor #b1 (|eq_top#1| state))) ; $flatten\gold.\_15_.$or$hardware/xilinx/cell_sim.v:381$53_Y
(define-fun |eq_top#3| ((state |eq_top_s|)) (_ BitVec 1) (bvor #b1 (|eq_top#1| state))) ; $flatten\gold.\_15_.$or$hardware/xilinx/cell_sim.v:382$55_Y
(define-fun |eq_top#4| ((state |eq_top_s|)) (_ BitVec 1) (ite (= ((_ extract 0 0) (|eq_top#0| state)) #b1) (|eq_top#3| state) (|eq_top#1| state))) ; $flatten\gold.\_15_.$ternary$hardware/xilinx/cell_sim.v:382$56_Y
(define-fun |eq_top#5| ((state |eq_top_s|)) (_ BitVec 1) (ite (= ((_ extract 0 0) (|eq_top#0| state)) #b1) (|eq_top#4| state) (|eq_top#0| state))) ; $flatten\gold.\_15_.$ternary$hardware/xilinx/cell_sim.v:383$57_Y
(define-fun |eq_top#6| ((state |eq_top_s|)) (_ BitVec 1) (ite (= ((_ extract 0 0) (|eq_top#0| state)) #b1) (|eq_top#5| state) (|eq_top#0| state))) ; $flatten\gold.\_15_.$ternary$hardware/xilinx/cell_sim.v:384$58_Y
(define-fun |eq_top#7| ((state |eq_top_s|)) (_ BitVec 4) (bvxor (concat (|eq_top#0| state) (concat (|eq_top#0| state) (concat (|eq_top#0| state) (|eq_top#0| state)))) (concat (|eq_top#6| state) (concat (|eq_top#5| state) (concat (|eq_top#4| state) (|eq_top#2| state)))))) ; $flatten\gold.\_15_.$xor$hardware/xilinx/cell_sim.v:381$54_Y
(define-fun |eq_top#8| ((state |eq_top_s|)) (_ BitVec 1) (bvor #b1 (|eq_top#1| state))) ; $flatten\gate.\_15_.$or$hardware/xilinx/cell_sim.v:381$53_Y
(define-fun |eq_top#9| ((state |eq_top_s|)) (_ BitVec 1) (bvor #b1 (|eq_top#1| state))) ; $flatten\gate.\_15_.$or$hardware/xilinx/cell_sim.v:382$55_Y
(define-fun |eq_top#10| ((state |eq_top_s|)) (_ BitVec 1) (ite (= ((_ extract 0 0) (|eq_top#0| state)) #b1) (|eq_top#9| state) (|eq_top#1| state))) ; $flatten\gate.\_15_.$ternary$hardware/xilinx/cell_sim.v:382$56_Y
(define-fun |eq_top#11| ((state |eq_top_s|)) (_ BitVec 1) (ite (= ((_ extract 0 0) (|eq_top#0| state)) #b1) (|eq_top#10| state) (|eq_top#0| state))) ; $flatten\gate.\_15_.$ternary$hardware/xilinx/cell_sim.v:383$57_Y
(define-fun |eq_top#12| ((state |eq_top_s|)) (_ BitVec 1) (ite (= ((_ extract 0 0) (|eq_top#0| state)) #b1) (|eq_top#11| state) (|eq_top#0| state))) ; $flatten\gate.\_15_.$ternary$hardware/xilinx/cell_sim.v:384$58_Y
(define-fun |eq_top#13| ((state |eq_top_s|)) (_ BitVec 4) (bvxor (concat (|eq_top#0| state) (concat (|eq_top#0| state) (concat (|eq_top#0| state) (|eq_top#0| state)))) (concat (|eq_top#12| state) (concat (|eq_top#11| state) (concat (|eq_top#10| state) (|eq_top#8| state)))))) ; $flatten\gate.\_15_.$xor$hardware/xilinx/cell_sim.v:381$54_Y
(define-fun |eq_top#14| ((state |eq_top_s|)) Bool (= ((_ extract 0 0) (|eq_top#7| state)) ((_ extract 0 0) (|eq_top#13| state)))) ; $auto$miter.cc:242:create_miter_equiv$1782
(define-fun |eq_top#15| ((state |eq_top_s|)) Bool (= ((_ extract 1 1) (|eq_top#7| state)) ((_ extract 1 1) (|eq_top#13| state)))) ; $auto$miter.cc:242:create_miter_equiv$1784
(define-fun |eq_top#16| ((state |eq_top_s|)) Bool (= ((_ extract 2 2) (|eq_top#7| state)) ((_ extract 2 2) (|eq_top#13| state)))) ; $auto$miter.cc:242:create_miter_equiv$1786
(define-fun |eq_top#17| ((state |eq_top_s|)) Bool (= ((_ extract 3 3) (|eq_top#7| state)) ((_ extract 3 3) (|eq_top#13| state)))) ; $auto$miter.cc:242:create_miter_equiv$1788
(define-fun |eq_top#18| ((state |eq_top_s|)) Bool (= (|eq_top#5| state) (|eq_top#11| state))) ; $auto$miter.cc:242:create_miter_equiv$1790
(define-fun |eq_top#19| ((state |eq_top_s|)) Bool (= (|eq_top#6| state) (|eq_top#12| state))) ; $auto$miter.cc:242:create_miter_equiv$1792
(define-fun |eq_top#20| ((state |eq_top_s|)) (_ BitVec 1) (ite (= ((_ extract 0 0) (|eq_top#0| state)) #b1) (|eq_top#6| state) (|eq_top#0| state))) ; $flatten\gold.\_15_.$ternary$hardware/xilinx/cell_sim.v:385$59_Y
(define-fun |eq_top#21| ((state |eq_top_s|)) (_ BitVec 1) (ite (= ((_ extract 0 0) (|eq_top#0| state)) #b1) (|eq_top#12| state) (|eq_top#0| state))) ; $flatten\gate.\_15_.$ternary$hardware/xilinx/cell_sim.v:385$59_Y
(define-fun |eq_top#22| ((state |eq_top_s|)) Bool (= (|eq_top#20| state) (|eq_top#21| state))) ; $auto$miter.cc:242:create_miter_equiv$1794
(define-fun |eq_top#23| ((state |eq_top_s|)) Bool (= (|eq_top#4| state) (|eq_top#1| state))) ; $auto$miter.cc:242:create_miter_equiv$1796
(define-fun |eq_top#24| ((state |eq_top_s|)) Bool (and  (|eq_top#14| state) (|eq_top#15| state) (|eq_top#16| state) (|eq_top#17| state) (|eq_top#18| state) (|eq_top#19| state) (|eq_top#22| state) (|eq_top#23| state))) ; $auto$miter.cc:269:create_miter_equiv$1798
(define-fun |eq_top#25| ((state |eq_top_s|)) (_ BitVec 1) (bvnot (ite (|eq_top#24| state) #b1 #b0))) ; \trigger
; yosys-smt2-output trigger 1
(define-fun |eq_top_n trigger| ((state |eq_top_s|)) Bool (= ((_ extract 0 0) (|eq_top#25| state)) #b1))
; yosys-smt2-input in__04_ 1
; yosys-smt2-witness {"offset": 0, "path": ["\\in__04_"], "smtname": "in__04_", "smtoffset": 0, "type": "input", "width": 1}
(define-fun |eq_top_n in__04_| ((state |eq_top_s|)) Bool (= ((_ extract 0 0) (|eq_top#0| state)) #b1))
(declare-fun |eq_top#26| (|eq_top_s|) Bool) ; \in_clk
; yosys-smt2-input in_clk 1
; yosys-smt2-witness {"offset": 0, "path": ["\\in_clk"], "smtname": "in_clk", "smtoffset": 0, "type": "input", "width": 1}
(define-fun |eq_top_n in_clk| ((state |eq_top_s|)) Bool (|eq_top#26| state))
; yosys-smt2-input in__12_ 1
; yosys-smt2-witness {"offset": 0, "path": ["\\in__12_"], "smtname": "in__12_", "smtoffset": 0, "type": "input", "width": 1}
(define-fun |eq_top_n in__12_| ((state |eq_top_s|)) Bool (= ((_ extract 0 0) (|eq_top#1| state)) #b1))
; yosys-smt2-assert 0 $auto$miter.cc:274:create_miter_equiv$1799
(define-fun |eq_top_a 0| ((state |eq_top_s|)) Bool (or (|eq_top#24| state) (not true))) ; $auto$miter.cc:274:create_miter_equiv$1799
(define-fun |eq_top_a| ((state |eq_top_s|)) Bool 
  (|eq_top_a 0| state)
)
(define-fun |eq_top_u| ((state |eq_top_s|)) Bool true)
(define-fun |eq_top_i| ((state |eq_top_s|)) Bool true)
(define-fun |eq_top_h| ((state |eq_top_s|)) Bool true)
(define-fun |eq_top_t| ((state |eq_top_s|) (next_state |eq_top_s|)) Bool true) ; end of module eq_top
; yosys-smt2-topmod eq_top
; end of yosys output
